33137
1 0 1 0 1 1 1 0 1 0 1 1 1 1 1 0 1 1 1 1 1 1 0 1 1 1 1 1 1 0 
18 19 21 27 2 12 21 27 18 28 4 28 13 13 28 18 13 20 27 0 18 16 5 24 10 18 27 19 4 2 19 19 4 16 27 6 20 8 24 16 18 8 6 4 8 19 13 21 19 14 24 16 24 16 8 6 11 8 18 25 4 0 25 8 13 11 5 14 28 25 18 12 19 8 23 23 20 23 8 16 10 0 26 25 4 13 6 5 27 25 28 6 25 25 2 13 11 6 0 28 28 21 12 18 4 0 4 24 27 13 19 4 27 12 12 8 28 25 17 8 26 11 17 19 26 16 2 11 26 17 28 24 25 20 23 8 13 13 28 10 12 27 11 11 25 5 24 21 27 25 24 17 23 0 8 11 2 16 13 13 13 27 10 24 5 27 5 4 13 21 5 20 19 14 26 2 0 10 4 10 5 21 2 19 12 8 28 23 0 21 2 21 6 4 25 12 25 21 10 19 